WARNING: for repeatability, setting FPU to use double precision
============================[ Problem Statistics ]=============================
|                                                                             |
|  Number of variables:            50                                         |
|  Number of clauses:             218                                         |
|  Parse time:                   0.00 s                                       |
|                                                                             |
============================[ Search Statistics ]==============================
| Conflicts |          ORIGINAL         |          LEARNT          | Progress |
|           |    Vars  Clauses Literals |    Limit  Clauses Lit/Cl |          |
===============================================================================
===============================================================================
restarts              : 1
conflicts             : 11             (8094 /sec)
decisions             : 25             (0.00 % random) (18396 /sec)
propagations          : 176            (129507 /sec)
conflict literals     : 48             (11.11 % deleted)
Memory used           : 20.00 MB
CPU time              : 0.001359 s

SATISFIABLE
